Route #1: 26 7 35 8
Route #2: 19 14 53
Route #3: 11 38
Route #4: 10 31 39
Route #5: 9 25 50
Route #6: 18 24 49 16
Route #7: 3 44 32
Route #8: 12 40 17
Route #9: 6 33 51
Route #10: 1 43 42 41 23
Route #11: 22 28 2
Route #12: 30 48 21
Route #13: 29 20 37 5
Route #14: 47 36 45 27
Route #15: 15 13 54 46
Route #16: 34 52 4
Cost 977